-72 -74 0
d -72 -1 -74 0
24 26 72 0
-3 -74 0
-74 0
72 0
3 0
-1 0
-51 0
-24 0
53 0
49 0
26 0
22 0
-5 0
-70 0
7 0
68 0
-55 0
-20 0
57 0
18 0
-9 0
-66 0
11 0
64 0
-59 0
-16 0
61 0
14 0
-13 0
-62 0
15 0
60 0
-63 0
-12 0
65 0
10 0
-17 0
-58 0
19 0
56 0
-67 0
-8 0
69 0
6 0
-21 0
-54 0
23 0
52 0
-71 0
-4 0
73 0
2 0
-25 0
-27 0
-50 0
-28 0
-32 0
-36 0
-40 0
-44 0
-48 0
-47 0
-43 0
-39 0
-35 0
-31 0
0
